W=5;
H=3;

MAX_TIME=6;
MAX_TRACKS=6;

TARGET=(3,5);

N_TRAINS=2;
TRAINS=[(1,3,DOWN),(1,1,DOWN)];

N_INIT_POS=7;
INIT_POS=[
(1,1,STRAIGHT_TD),
(1,2,EMPTY),
(1,3,STRAIGHT_TD),
(2,2,EMPTY),
(2,3,STRAIGHT_TD),
(3,4,STRAIGHT_RL),
(3,5,STRAIGHT_RL),
];
N_TUNNELS=0;
TUNNEL_PAIRS=[];

N_GATES=0;
GATES=[];
N_ACTIVATIONS=0;
ACTIVATIONS=[];

N_DSWITCHES=0;
DSWITCHES=[];
N_STATIONS=0;
STATIONS=[];
